119 48 011 1
1
883 113 1
801 114 1
754 115 1
656 116 1
691 117 1
722 118 1
677 119 1
785 108 1
703 109 1
740 110 1
708 111 1
799 112 1
587 113 1
998 114 1
632 115 1
698 116 1
794 117 1
567 118 1
663 119 1
626 108 1
643 109 1
724 110 1
573 111 1
595 112 1
819 113 1
608 114 1
615 115 1
746 116 1
784 117 1
859 118 1
842 119 1
949 108 1
739 109 1
724 110 1
766 111 1
595 112 1
733 113 1
603 114 1
695 115 1
578 116 1
700 117 1
695 118 1
785 119 1
675 108 1
1013 109 1
813 110 1
717 111 1
590 112 1
1
1
1
1
1
1
1
1
1
1
1
1
1
1
1
1
1
1
1
1
1
1
1
1
1
1
1
1
1
1
1
1
1
1
1
1
1
1
1
1
1
1
1
1
1
1
1
1
1
1
1
1
1
1
1
1
1
1
1 9 784 21 625 33 948 45 674
1 10 702 22 642 34 738 46 1012
1 11 739 23 723 35 723 47 812
1 12 707 24 572 36 765 48 716
1 13 798 25 594 37 594 49 589
1 2 882 14 586 26 818 38 732
1 3 800 15 997 27 607 39 602
1 4 753 16 631 28 614 40 694
1 5 655 17 697 29 745 41 577
1 6 690 18 793 30 783 42 699
1 7 721 19 566 31 858 43 694
1 8 676 20 662 32 841 44 784
